fil = 7;
col = 7;

bl = [
  1,3, 1,6, 1,7,
  2,6, 2,7,
  3,6, 3,7,
  4,1, 4,2, 4,4, 4,5,
  5,1, 5,2,
  6,4, 6,5,
  7,4, 7,5
];

kak = array2d(1..18, 1..11, [
% Pistas horizontales:
  1,1, 1,2, 0,0, 0,0, 0,0, 4,
  1,4, 1,5, 0,0, 0,0, 0,0, 6,
  2,1, 2,2, 2,3, 0,0, 0,0, 15,
  2,4, 2,5, 0,0, 0,0, 0,0, 11,
  3,1, 3,2, 3,3, 3,4, 3,5, 27,
  4,6, 4,7, 0,0, 0,0, 0,0, 11,
  5,3, 5,4, 5,5, 5,6, 5,7, 30,
  6,1, 6,2, 6,3, 0,0, 0,0, 15,
  6,6, 6,7, 0,0, 0,0, 0,0, 3,
  7,1, 7,2, 7,3, 0,0, 0,0, 18,
  7,6, 7,7, 0,0, 0,0, 0,0, 9,
  
% Pistas verticales:
  1,1, 2,1, 3,1, 0,0, 0,0, 10,
  1,2, 2,2, 3,2, 0,0, 0,0, 8,
  3,3, 4,3, 5,3, 6,3, 7,3, 27,
  1,4, 2,4, 3,4, 0,0, 0,0, 18,
  1,5, 2,5, 3,5, 0,0, 0,0, 11,
  4,6, 5,6, 6,6, 7,6, 0,0, 16,
  4,7, 5,7, 6,7, 7,7, 0,0, 21
]);